37176.87,74.36,90.18
37253.36,74.21,89.99
36070.75,76.64,92.94
44403.53,62.26,75.5
38166.19,72.43,87.84
37535.79,73.65,89.32
39507.92,69.97,84.86
38149.5,72.47,87.88
39857.15,69.36,84.11
39503.81,69.98,84.87
40850.85,67.67,82.07
36943.82,74.83,90.75
43463.59,63.61,77.14
39772.83,69.51,84.29
37535.48,73.65,89.32
40638.35,68.03,82.5
35536.8,77.79,94.34
40632.04,68.04,82.51
38790.86,71.27,86.43
41574.51,66.5,80.64
